c description: There is a graph of 6 vertices with a 3-clique and a 3-coloring
c generator: CNFgen (0.9.0)
c copyright: (C) 2012-2020 Massimo Lauria <massimo.lauria@uniroma1.it>
c url: https://massimolauria.net/cnfgen
c
p cnf 51 225
-16 -17 0
-16 -18 0
-16 -19 0
-16 -20 0
-16 -21 0
-17 -18 0
-17 -19 0
-17 -20 0
-17 -21 0
-18 -19 0
-18 -20 0
-18 -21 0
-19 -20 0
-19 -21 0
-20 -21 0
16 17 18 19 20 21 0
-22 -23 0
-22 -24 0
-22 -25 0
-22 -26 0
-22 -27 0
-23 -24 0
-23 -25 0
-23 -26 0
-23 -27 0
-24 -25 0
-24 -26 0
-24 -27 0
-25 -26 0
-25 -27 0
-26 -27 0
22 23 24 25 26 27 0
-28 -29 0
-28 -30 0
-28 -31 0
-28 -32 0
-28 -33 0
-29 -30 0
-29 -31 0
-29 -32 0
-29 -33 0
-30 -31 0
-30 -32 0
-30 -33 0
-31 -32 0
-31 -33 0
-32 -33 0
28 29 30 31 32 33 0
-16 -22 0
-16 -28 0
-22 -28 0
-17 -23 0
-17 -29 0
-23 -29 0
-18 -24 0
-18 -30 0
-24 -30 0
-19 -25 0
-19 -31 0
-25 -31 0
-20 -26 0
-20 -32 0
-26 -32 0
-21 -27 0
-21 -33 0
-27 -33 0
1 -16 -23 0
1 -16 -29 0
1 -22 -17 0
1 -22 -29 0
1 -28 -17 0
1 -28 -23 0
2 -16 -24 0
2 -16 -30 0
2 -22 -18 0
2 -22 -30 0
2 -28 -18 0
2 -28 -24 0
3 -16 -25 0
3 -16 -31 0
3 -22 -19 0
3 -22 -31 0
3 -28 -19 0
3 -28 -25 0
4 -16 -26 0
4 -16 -32 0
4 -22 -20 0
4 -22 -32 0
4 -28 -20 0
4 -28 -26 0
5 -16 -27 0
5 -16 -33 0
5 -22 -21 0
5 -22 -33 0
5 -28 -21 0
5 -28 -27 0
6 -17 -24 0
6 -17 -30 0
6 -23 -18 0
6 -23 -30 0
6 -29 -18 0
6 -29 -24 0
7 -17 -25 0
7 -17 -31 0
7 -23 -19 0
7 -23 -31 0
7 -29 -19 0
7 -29 -25 0
8 -17 -26 0
8 -17 -32 0
8 -23 -20 0
8 -23 -32 0
8 -29 -20 0
8 -29 -26 0
9 -17 -27 0
9 -17 -33 0
9 -23 -21 0
9 -23 -33 0
9 -29 -21 0
9 -29 -27 0
10 -18 -25 0
10 -18 -31 0
10 -24 -19 0
10 -24 -31 0
10 -30 -19 0
10 -30 -25 0
11 -18 -26 0
11 -18 -32 0
11 -24 -20 0
11 -24 -32 0
11 -30 -20 0
11 -30 -26 0
12 -18 -27 0
12 -18 -33 0
12 -24 -21 0
12 -24 -33 0
12 -30 -21 0
12 -30 -27 0
13 -19 -26 0
13 -19 -32 0
13 -25 -20 0
13 -25 -32 0
13 -31 -20 0
13 -31 -26 0
14 -19 -27 0
14 -19 -33 0
14 -25 -21 0
14 -25 -33 0
14 -31 -21 0
14 -31 -27 0
15 -20 -27 0
15 -20 -33 0
15 -26 -21 0
15 -26 -33 0
15 -32 -21 0
15 -32 -27 0
-34 -35 0
-34 -36 0
-35 -36 0
34 35 36 0
-37 -38 0
-37 -39 0
-38 -39 0
37 38 39 0
-40 -41 0
-40 -42 0
-41 -42 0
40 41 42 0
-43 -44 0
-43 -45 0
-44 -45 0
43 44 45 0
-46 -47 0
-46 -48 0
-47 -48 0
46 47 48 0
-49 -50 0
-49 -51 0
-50 -51 0
49 50 51 0
-1 -34 -37 0
-1 -35 -38 0
-1 -36 -39 0
-2 -34 -40 0
-2 -35 -41 0
-2 -36 -42 0
-3 -34 -43 0
-3 -35 -44 0
-3 -36 -45 0
-4 -34 -46 0
-4 -35 -47 0
-4 -36 -48 0
-5 -34 -49 0
-5 -35 -50 0
-5 -36 -51 0
-6 -37 -40 0
-6 -38 -41 0
-6 -39 -42 0
-7 -37 -43 0
-7 -38 -44 0
-7 -39 -45 0
-8 -37 -46 0
-8 -38 -47 0
-8 -39 -48 0
-9 -37 -49 0
-9 -38 -50 0
-9 -39 -51 0
-10 -40 -43 0
-10 -41 -44 0
-10 -42 -45 0
-11 -40 -46 0
-11 -41 -47 0
-11 -42 -48 0
-12 -40 -49 0
-12 -41 -50 0
-12 -42 -51 0
-13 -43 -46 0
-13 -44 -47 0
-13 -45 -48 0
-14 -43 -49 0
-14 -44 -50 0
-14 -45 -51 0
-15 -46 -49 0
-15 -47 -50 0
-15 -48 -51 0